benchmark_num_str/p1_9_10-0.txt
{
	"num_strings": 9,
	"alphabet": "ACGT",
	"strings": [
		"CAACAAAACA",
		"CAAAAAACAA",
		"AACAAAAAAA",
		"CACACCCAAA",
		"ACAAAACCCA",
		"AAAACACCAA",
		"AACAAAAAGA",
		"ACAACCCAAA",
		"AAAACACAAC"
	],
	"str_length":[10,10,10,10,10,10,10,10,10]
}